
Gurobi 6.0.4 (win64) logging started 06/18/15 15:58:42

Read LP format model from file C:\MT\repository\VRPTWMS\instances\mip\freight\N10-C_DV10-C_SV50_F22_2_No_1.lp
Reading time = 0.02 seconds
(null): 621 rows, 288 columns, 2553 nonzeros
Optimize a model with 621 rows, 288 columns and 2553 nonzeros
Model has 1000 quadratic constraints
Coefficient statistics:
  Matrix range    [1e+00, 1e+06]
  Objective range [6e+04, 1e+07]
  Bounds range    [1e+00, 1e+06]
  RHS range       [1e+00, 1e+06]
Presolve removed 46 rows and 18 columns
Presolve time: 0.07s
Presolved: 2505 rows, 1235 columns, 13541 nonzeros
Variable types: 965 continuous, 270 integer (228 binary)
Found heuristic solution: objective 1.049612e+08

Root relaxation: objective 1.422200e+06, 94 iterations, 0.01 seconds

    Nodes    |    Current Node    |     Objective Bounds      |     Work
 Expl Unexpl |  Obj  Depth IntInf | Incumbent    BestBd   Gap | It/Node Time

     0     0 1422200.00    0   27 1.0496e+08 1422200.00  98.6%     -    0s
H    0     0                    6.354520e+07 1422200.00  97.8%     -    0s
     0     0 1485301.94    0   47 6.3545e+07 1485301.94  97.7%     -    0s
     0     0 1641087.50    0   37 6.3545e+07 1641087.50  97.4%     -    0s
     0     0 1644952.63    0   48 6.3545e+07 1644952.63  97.4%     -    0s
     0     0 1663529.72    0   52 6.3545e+07 1663529.72  97.4%     -    0s
     0     0 1779074.71    0   49 6.3545e+07 1779074.71  97.2%     -    0s
     0     0 2785953.87    0   62 6.3545e+07 2785953.87  95.6%     -    0s
     0     0 3349333.33    0   45 6.3545e+07 3349333.33  94.7%     -    0s
     0     0 3382833.33    0   47 6.3545e+07 3382833.33  94.7%     -    0s
     0     0 3425466.67    0   47 6.3545e+07 3425466.67  94.6%     -    0s
     0     0 3429750.00    0   66 6.3545e+07 3429750.00  94.6%     -    0s
H    0     0                    5.303650e+07 3429750.00  93.5%     -    0s
     0     0 3435964.29    0   65 5.3037e+07 3435964.29  93.5%     -    0s
     0     0 3435964.29    0   67 5.3037e+07 3435964.29  93.5%     -    0s
     0     0 3435964.29    0   65 5.3037e+07 3435964.29  93.5%     -    0s
     0     0 3435964.29    0   62 5.3037e+07 3435964.29  93.5%     -    0s
     0     0 3435964.29    0   61 5.3037e+07 3435964.29  93.5%     -    0s
H    0     0                    4.306430e+07 3435964.29  92.0%     -    0s
     0     0 3435964.29    0   64 4.3064e+07 3435964.29  92.0%     -    0s
     0     0 3435964.29    0   64 4.3064e+07 3435964.29  92.0%     -    0s
     0     0 3435964.29    0   64 4.3064e+07 3435964.29  92.0%     -    0s
     0     2 3435964.29    0   64 4.3064e+07 3435964.29  92.0%     -    0s
H   39    21                    4.276270e+07 9009294.37  78.9%  21.6    0s
H  290   172                    4.268670e+07 1.1776e+07  72.4%  15.9    0s
  2233   581 3.7291e+07   32   24 4.2687e+07 1.3309e+07  68.8%  21.2    5s
  5367  1090 3.5864e+07   26   28 4.2687e+07 2.0724e+07  51.5%  18.5   10s
  9753  1450 3.3401e+07   27   22 4.2687e+07 2.3034e+07  46.0%  16.5   15s
 13981   939 3.3420e+07   31   22 4.2687e+07 2.8248e+07  33.8%  15.6   20s

Cutting planes:
  Implied bound: 4
  Clique: 9
  GUB cover: 8

Explored 16702 nodes (248722 simplex iterations) in 22.44 seconds
Thread count was 2 (of 4 available processors)

Optimal solution found (tolerance 1.00e-04)
Best objective 4.268670000000e+07, best bound 4.268670000000e+07, gap 0.0%
k_c1	100000.0
k_c10	50000.0
k_c2	50000.0
k_c3	50000.0
k_c4	100000.0
k_c5	70000.0
k_c6	100000.0
k_c7	40000.0
k_c8	70000.0
k_c9	100000.0
k_dN	-0.0
o_1	0.0
o_10	-0.0
o_2	0.0
o_3	-0.0
o_4	0.0
o_5	-0.0
o_6	0.0
o_7	-0.0
o_8	-0.0
o_9	0.0
p_1	0.0
p_10	0.0
p_2	-0.0
p_3	0.0
p_4	0.0
p_5	-0.0
p_6	-0.0
p_7	-0.0
p_8	0.0
p_9	0.0
phi_c1	34667.0
phi_c10	23441.0
phi_c2	199254.0
phi_c3	10450.0
phi_c4	208547.0
phi_c5	203322.0
phi_c6	189761.0
phi_c7	22478.0
phi_c8	28499.0
phi_c9	161937.0
phi_d0	220000.0
phi_dN	-0.0
tauD_c1	236950.0
tauD_c10	400000.0
tauD_c2	250000.0
tauD_c3	745725.0
tauD_c4	65275.0
tauD_c5	174800.0
tauD_c6	55350.0
tauD_c7	392500.0
tauD_c8	300000.0
tauD_c9	229325.0
tauD_d0	-0.0
tauD_dN	1000000.0
tauS_c1	0.0
tauS_c10	0.0
tauS_c2	0.0
tauS_c3	0.0
tauS_c4	789174.0
tauS_c5	789499.0
tauS_c6	827374.0
tauS_c7	0.0
tauS_c8	796899.0
tauS_c9	805974.0
tauS_d0	-0.0
tauS_dN	0.0
x_c10_dN	1.0
x_c1_c8	1.0
x_c2_dN	1.0
x_c3_dN	1.0
x_c4_c5	1.0
x_c5_c2	1.0
x_c6_c3	1.0
x_c7_dN	1.0
x_c8_c7	1.0
x_c9_c10	1.0
x_d0_c1	1.0
x_d0_c4	1.0
x_d0_c6	1.0
x_d0_c9	1.0
